c 2 __LINUXTHREADS_OLD__
c 4 __UCLIBC_HAS_FLOATS__
c 1 __UCLIBC_HAS_XLOCALE__
c 6 __UCLIBC_HAS_LOCALE__
c 5 __PTHREADS_DEBUG_SUPPORT__
c 7 __LINUXTHREADS_NEW__
c 3 __UCLIBC_HAS_THREADS__
p cnf 7 1
-4 2 -5 -1 -3 6 -7 1
